language Essence 1.3

letting A be 2
letting T be 178
letting X be 19
letting Y be 19
letting Z be 4
letting building be
        [[0, 0, 0, 0, 0, 0, 0, 0, 0, 0, 0, 0, 0, 0, 0, 0, 0, 0, 0; int(0..18)],
         [0, 1, 0, 1, 3, 0, 3, 0, 0, 1, 1, 1, 1, 3, 0, 3, 1, 1, 0; int(0..18)],
         [0, 2, 3, 0, 1, 0, 1, 1, 2, 1, 1, 1, 1, 0, 1, 0, 0, 1, 0; int(0..18)],
         [0, 2, 2, 2, 1, 3, 0, 1, 0, 2, 2, 0, 0, 1, 1, 3, 1, 3, 0; int(0..18)],
         [0, 2, 2, 1, 3, 2, 0, 0, 3, 2, 0, 0, 0, 2, 2, 1, 2, 0, 0; int(0..18)],
         [0, 2, 3, 0, 2, 0, 2, 1, 2, 0, 0, 2, 2, 3, 2, 2, 2, 1, 0; int(0..18)],
         [0, 3, 3, 2, 3, 2, 0, 0, 0, 2, 0, 3, 3, 2, 1, 3, 0, 3, 0; int(0..18)],
         [0, 1, 0, 0, 2, 3, 2, 2, 0, 0, 2, 2, 0, 3, 1, 0, 1, 2, 0; int(0..18)],
         [0, 3, 1, 1, 3, 1, 2, 2, 2, 3, 3, 2, 3, 1, 1, 2, 1, 2, 0; int(0..18)],
         [0, 2, 3, 3, 0, 1, 3, 0, 1, 0, 1, 0, 3, 0, 0, 2, 1, 3, 0; int(0..18)],
         [0, 0, 0, 0, 0, 3, 0, 3, 2, 2, 3, 3, 0, 0, 0, 0, 0, 0, 0; int(0..18)],
         [0, 0, 0, 0, 0, 0, 0, 0, 0, 0, 0, 0, 0, 0, 0, 0, 0, 0, 0; int(0..18)],
         [0, 0, 0, 0, 0, 0, 0, 0, 0, 0, 0, 0, 0, 0, 0, 0, 0, 0, 0; int(0..18)],
         [0, 0, 0, 0, 0, 0, 0, 0, 0, 0, 0, 0, 0, 0, 0, 0, 0, 0, 0; int(0..18)],
         [0, 0, 0, 0, 0, 0, 0, 0, 0, 0, 0, 0, 0, 0, 0, 0, 0, 0, 0; int(0..18)],
         [0, 0, 0, 0, 0, 0, 0, 0, 0, 0, 0, 0, 0, 0, 0, 0, 0, 0, 0; int(0..18)],
         [0, 0, 0, 0, 0, 0, 0, 0, 0, 0, 0, 0, 0, 0, 0, 0, 0, 0, 0; int(0..18)],
         [0, 0, 0, 0, 0, 0, 0, 0, 0, 0, 0, 0, 0, 0, 0, 0, 0, 0, 0; int(0..18)],
         [0, 0, 0, 0, 0, 0, 0, 0, 0, 0, 0, 0, 0, 0, 0, 0, 0, 0, 0; int(0..18)];
             int(0..18)]
$ Visualisation for building
$ 0 0 0 0 0 0 0 0 0 0 0 0 0 0 0 0 0 0 0
$ 0 1 0 1 3 0 3 0 0 1 1 1 1 3 0 3 1 1 0
$ 0 2 3 0 1 0 1 1 2 1 1 1 1 0 1 0 0 1 0
$ 0 2 2 2 1 3 0 1 0 2 2 0 0 1 1 3 1 3 0
$ 0 2 2 1 3 2 0 0 3 2 0 0 0 2 2 1 2 0 0
$ 0 2 3 0 2 0 2 1 2 0 0 2 2 3 2 2 2 1 0
$ 0 3 3 2 3 2 0 0 0 2 0 3 3 2 1 3 0 3 0
$ 0 1 0 0 2 3 2 2 0 0 2 2 0 3 1 0 1 2 0
$ 0 3 1 1 3 1 2 2 2 3 3 2 3 1 1 2 1 2 0
$ 0 2 3 3 0 1 3 0 1 0 1 0 3 0 0 2 1 3 0
$ 0 0 0 0 0 3 0 3 2 2 3 3 0 0 0 0 0 0 0
$ 0 0 0 0 0 0 0 0 0 0 0 0 0 0 0 0 0 0 0
$ 0 0 0 0 0 0 0 0 0 0 0 0 0 0 0 0 0 0 0
$ 0 0 0 0 0 0 0 0 0 0 0 0 0 0 0 0 0 0 0
$ 0 0 0 0 0 0 0 0 0 0 0 0 0 0 0 0 0 0 0
$ 0 0 0 0 0 0 0 0 0 0 0 0 0 0 0 0 0 0 0
$ 0 0 0 0 0 0 0 0 0 0 0 0 0 0 0 0 0 0 0
$ 0 0 0 0 0 0 0 0 0 0 0 0 0 0 0 0 0 0 0
$ 0 0 0 0 0 0 0 0 0 0 0 0 0 0 0 0 0 0 0

